 Compiled for linux_x86_64_ifort17 on Tue, 03 Mar 2020 15:46:00 +0000
 from code version
 e1fe0d666396+ Castep191_branch Thu, 24 Oct 2019 13:54:03 +0100
 Compiler: Intel Fortran 17.0.4.196; Optimisation: fast
 MATHLIBS: Intel MKL(11.3.4) (LAPACK version 3.6.0)
 FFT Lib : mkl
 Fundamental constants values: CODATA 2014

 Run started: Tue, 31 Mar 2020 11:15:10 +0100

 Atomic calculation performed for Al:1K: 1s1 2s2 2p6 3s2 3p1

 Converged in 51 iterations to an ae energy of -5023.405 eV

   | Pseudopotential Report - Date of generation 31-03-2020   |
   | Element: Al Ionic charge: 12.00 Level of theory: PBE     |
   | Atomic Solver: Koelling-Harmon                           |
   |               Reference Electronic Structure             |
   |         Orbital         Occupation         Energy        |
   |            2s              2.000           -5.220        |
   |            2p              6.000           -3.894        |
   |            3s              2.000           -0.682        |
   |            3p              1.000           -0.434        |
   |                 Pseudopotential Definition               |
   |        Beta     l      e      Rc     scheme   norm       |
   |          1      0   -5.220   1.203     qc      0         |
   |          2      0   -0.682   1.203     qc      0         |
   |          3      0    0.250   1.203     qc      0         |
   |          4      1   -3.894   1.203     qc      0         |
   |          5      1   -0.434   1.203     qc      0         |
   |          6      1    0.250   1.203     qc      0         |
   |         loc     2    0.000   1.203     pn      0         |
   | Augmentation charge Rinner = 0.841                       |
   | Partial core correction Rc = 0.841                       |
   | "2|1.2|23|26|29|20U:21U:30:31(qc=8){1s1}"                |
   |      Author: Chris J. Pickard, Cambridge University      |

 Pseudo atomic calculation performed for O 2s2 2p4

 Converged in 22 iterations to a total energy of -434.9014 eV

 Pseudo atomic calculation performed for Al 2s2 2p6 3s2 3p1

[...]

 Pseudo atomic calculation performed for Al:1K 2s2 2p6 3s2 3p1

 Converged in 12 iterations to a total energy of -2729.8065 eV
 Calculation parallelised over 240 processes.
 Data is distributed by G-vector(120-way) and k-point(2-way)

 ************************************ Title ************************************

 ***************************** General Parameters ******************************

 output verbosity                               : normal  (1)
 write checkpoint data to                       : Al2O3-ICSD_CollCode9770-supercell-1000eV.check
 type of calculation                            : Electronic Spectroscopy
 stress calculation                             : off
 density difference calculation                 : off
 electron localisation func (ELF) calculation   : off
 Hirshfeld analysis                             : off
 unlimited duration calculation
 timing information                             : on
 write extra output files                       : on
 write final potential to formatted file        : off
 write final density to formatted file          : off
 write BibTeX reference list                    : on
 write OTFG pseudopotential files               : on
 write electrostatic potential file             : on
 write bands file                               : on
 checkpoint writing                             : both castep_bin and check files

 output         length unit                     : A
 output           mass unit                     : amu
 output           time unit                     : ps
 output         charge unit                     : e
 output           spin unit                     : hbar/2
 output         energy unit                     : eV
 output          force unit                     : eV/A
 output       velocity unit                     : A/ps
 output       pressure unit                     : GPa
 output     inv_length unit                     : 1/A
 output      frequency unit                     : cm-1
 output force constant unit                     : eV/A**2
 output         volume unit                     : A**3
 output   IR intensity unit                     : (D/A)**2/amu
 output         dipole unit                     : D
 output         efield unit                     : eV/A/e
 output        entropy unit                     : J/mol/K

 wavefunctions paging                           : none
 random number generator seed                   : randomised (111510214)
 data distribution                              : optimal for this architecture

 *********************** Exchange-Correlation Parameters ***********************

 using functional                               : Perdew Burke Ernzerhof
 relativistic treatment                         : Koelling-Harmon
 DFT+D: Semi-empirical dispersion correction    : off

 ************************* Pseudopotential Parameters **************************

 pseudopotential representation                 : reciprocal space
 <beta|phi> representation                      : reciprocal space
 spin-orbit coupling                            : off

 **************************** Basis Set Parameters *****************************

 plane wave basis set cut-off                   :  1000.0000   eV
 size of standard grid                          :     2.0000
 size of   fine   grid                          :     4.0000
 size of   fine   gmax                          :    64.8035   1/A
 finite basis set correction                    : none

 **************************** Electronic Parameters ****************************

 number of  electrons                           :  961.0
 net charge of system                           :  0.000
 net spin   of system                           :  1.000
 number of  up  spins                           :  481.0
 number of down spins                           :  480.0
 treating system as spin-polarized
 number of bands                                :        681

 ********************* Electronic Minimization Parameters **********************

 Method: Treating system as metallic with density mixing treatment of electrons,
         and number of  SD  steps               :          1
         and number of  CG  steps               :          4

 total energy / atom convergence tol.           : 0.1000E-04   eV
 eigen-energy convergence tolerance             : 0.1000E-05   eV
 max force / atom convergence tol.              : ignored
 convergence tolerance window                   :          3   cycles
 max. number of SCF cycles                      :        150
 number of fixed-spin iterations                :         10
 smearing scheme                                : Gaussian
 smearing width                                 : 0.2000       eV
 Fermi energy convergence tolerance             : 0.2721E-13   eV
 periodic dipole correction                     : NONE

 ************************** Density Mixing Parameters **************************

 density-mixing scheme                          : Pulay
 max. length of mixing history                  :         20
 charge density mixing amplitude                : 0.4000
   spin density mixing amplitude                :  2.000
 cut-off energy for mixing                      :  1000.       eV

 *********************** Population Analysis Parameters ************************

 Population analysis with cutoff                :  3.000       A
 Population analysis output                     : summary and pdos components

 ********************* Electronic Spectroscopy Parameters **********************

 electronic spectroscopy with theory level      : DFT
 spectroscopy calculation                       : core loss (EELS, XANES, etc)
 max. number of iterations                      :         60
 max. steps per iteration                       :          5
 number of bands / k-point                      :        812
 band convergence tolerance                     : 0.1000E-05   eV
 write orbitals file                            : off

                                      Unit Cell
        Real Lattice(A)                      Reciprocal Lattice(1/A)
     9.6188124     0.0000000     0.0000000        0.653218406   0.377135822   0.000000000
    -4.8094062     8.3301359     0.0000000       -0.000000000   0.754271645   0.000000000
     0.0000000     0.0000000    13.1260453        0.000000000   0.000000000   0.478680757

                       Lattice parameters(A)       Cell Angles
                    a =      9.618812          alpha =   90.000000
                    b =      9.618812          beta  =   90.000000
                    c =     13.126045          gamma =  120.000000

                       Current cell volume =          1051.737696       A**3
                                   density =             2.326693   AMU/A**3
                                           =             3.863565     g/cm^3

                                     Cell Contents
                         Total number of ions in cell =  120
                      Total number of species in cell =    3
                        Max number of any one species =   72

            x  Element    Atom        Fractional coordinates of atoms  x
            x            Number           u          v          w      x
            x  O            1         0.333333   0.013583   0.083333   x
            x  O            2         0.833333   0.013583   0.083333   x
            x  O            3         0.180250   0.166667   0.083333   x
            x  O            4         0.680250   0.166667   0.083333   x
            x  O            5         0.486417   0.319750   0.083333   x
            x  O            6         0.986417   0.319750   0.083333   x
            x  O            7         0.333333   0.513583   0.083333   x
            x  O            8         0.833333   0.513583   0.083333   x
            x  O            9         0.180250   0.666667   0.083333   x
            x  O           10         0.680250   0.666667   0.083333   x
            x  O           11         0.486417   0.819750   0.083333   x
            x  O           12         0.986417   0.819750   0.083333   x
            x  O           13         0.153084   0.000000   0.250000   x
            x  O           14         0.653084   0.000000   0.250000   x
            x  O           15         0.000000   0.153084   0.250000   x
            x  O           16         0.500000   0.153084   0.250000   x
            x  O           17         0.346916   0.346916   0.250000   x
            x  O           18         0.846916   0.346916   0.250000   x
            x  O           19         0.153084   0.500000   0.250000   x
            x  O           20         0.653084   0.500000   0.250000   x
            x  O           21         0.000000   0.653084   0.250000   x
            x  O           22         0.500000   0.653084   0.250000   x
            x  O           23         0.346916   0.846916   0.250000   x
            x  O           24         0.846916   0.846916   0.250000   x
            x  O           25         0.166667   0.180250   0.416667   x
[...]
              O 67 -- O 71                  -0.09        -0.00          2.55041
              O 44 -- O 48                  -0.09        -0.00          2.55041
              O 43 -- O 47                  -0.09        -0.00          2.55041
              O 38 -- O 42                  -0.09         0.00          2.55041
              O 37 -- O 41                  -0.09         0.00          2.55041
[...]
              O 3  -- O 13                  -0.08        -0.00          2.64676
              O 56 -- O 64                  -0.08        -0.00          2.64676
              O 50 -- O 70                  -0.08        -0.00          2.64676
              O 46 -- O 56                  -0.08        -0.00          2.64676
              O 45 -- O 55                  -0.07        -0.00          2.64676
              O 40 -- O 50                  -0.08         0.00          2.64676
              O 39 -- O 49                  -0.08        -0.00          2.64676
              O 20 -- O 28                  -0.08         0.00          2.64676
              O 19 -- O 27                  -0.08         0.00          2.64676
              O 14 -- O 34                  -0.08        -0.00          2.64676
              O 13 -- O 33                  -0.08         0.00          2.64676
             Al 12 -- Al 47                 -0.17         0.00          2.68231
             Al 11 -- Al 46                 -0.17         0.00          2.68231
             Al 10 -- Al 45                 -0.17         0.00          2.68231
             Al 9  -- Al 44                 -0.17         0.00          2.68231
             Al 43 -- Al:1K 1               -0.06         0.00          2.68231
             Al 31 -- Al 42                 -0.17        -0.00          2.68231
             Al 30 -- Al 41                 -0.17        -0.00          2.68231
             Al 29 -- Al 40                 -0.17        -0.00          2.68231
             Al 24 -- Al 35                 -0.19         0.00          2.68231
             Al 23 -- Al 34                 -0.19         0.00          2.68231
             Al 22 -- Al 33                 -0.17        -0.00          2.68231
             Al 21 -- Al 32                 -0.19         0.00          2.68231
             Al 16 -- Al 28                 -0.17        -0.00          2.68231
             Al 15 -- Al 27                 -0.17        -0.00          2.68231
             Al 14 -- Al 26                 -0.17        -0.00          2.68231
             Al 13 -- Al 25                 -0.17        -0.00          2.68231
             Al 4  -- Al 39                 -0.17         0.00          2.68231
             Al 3  -- Al 38                 -0.17         0.00          2.68231
             Al 2  -- Al 37                 -0.17         0.00          2.68231
             Al 1  -- Al 36                 -0.17         0.00          2.68231
             Al 8  -- Al 20                 -0.17         0.00          2.68231
             Al 7  -- Al 19                 -0.17        -0.00          2.68231
             Al 6  -- Al 18                 -0.17        -0.00          2.68231
             Al 5  -- Al 17                 -0.17        -0.00          2.68231
              O 32 -- O 45                  -0.05        -0.00          2.75363
              O 26 -- O 39                  -0.05        -0.00          2.75363
              O 25 -- O 40                  -0.05        -0.00          2.75363
              O 34 -- O 47                  -0.05        -0.00          2.75363
              O 33 -- O 48                  -0.05        -0.00          2.75363
              O 31 -- O 46                  -0.05        -0.00          2.75363
              O 28 -- O 41                  -0.05        -0.00          2.75363
              O 27 -- O 42                  -0.05         0.00          2.75363
              O 12 -- O 70                  -0.05         0.00          2.75363
              O 10 -- O 68                  -0.05        -0.00          2.75363
              O 9  -- O 67                  -0.05        -0.00          2.75363
              O 6  -- O 64                  -0.05        -0.00          2.75363
              O 4  -- O 62                  -0.05        -0.00          2.75363
              O 3  -- O 61                  -0.05        -0.00          2.75363
              O 11 -- O 69                  -0.05        -0.00          2.75363
              O 5  -- O 63                  -0.05         0.00          2.75363
              O 26 -- O 38                  -0.05         0.00          2.75363
              O 36 -- O 48                  -0.05        -0.00          2.75363
              O 35 -- O 47                  -0.05        -0.00          2.75363
              O 32 -- O 44                  -0.05        -0.00          2.75363
              O 31 -- O 43                  -0.05        -0.00          2.75363
              O 30 -- O 42                  -0.05        -0.00          2.75363
              O 29 -- O 41                  -0.05        -0.00          2.75363
              O 25 -- O 37                  -0.05        -0.00          2.75363
              O 12 -- O 71                  -0.05        -0.00          2.75363
              O 11 -- O 72                  -0.05        -0.00          2.75363
              O 8  -- O 67                  -0.05        -0.00          2.75363
              O 7  -- O 68                  -0.05         0.00          2.75363
              O 5  -- O 66                  -0.05        -0.00          2.75363
              O 2  -- O 61                  -0.05        -0.00          2.75363
              O 1  -- O 62                  -0.05         0.00          2.75363
              O 6  -- O 65                  -0.05        -0.00          2.75363
              O 30 -- O 46                  -0.05        -0.00          2.75363
              O 36 -- O 40                  -0.05         0.00          2.75363
              O 35 -- O 39                  -0.05        -0.00          2.75363
              O 34 -- O 38                  -0.05        -0.00          2.75363
              O 33 -- O 37                  -0.05        -0.00          2.75363
              O 29 -- O 45                  -0.05        -0.00          2.75363
              O 28 -- O 44                  -0.05        -0.00          2.75363
              O 27 -- O 43                  -0.05        -0.00          2.75363
              O 10 -- O 66                  -0.05         0.00          2.75363
[...]
              O 50 -- O 61                  -0.05         0.00          2.75364
              O 48 -- O 50                  -0.05        -0.00          2.75364
              O 42 -- O 56                  -0.05         0.00          2.75364
              O 20 -- O 32                  -0.05        -0.00          2.75364
              O 19 -- O 31                  -0.05         0.00          2.75364
              O 14 -- O 26                  -0.05        -0.00          2.75364
              O 13 -- O 25                  -0.05         0.00          2.75364
             Al 39 -- Al 41                 -0.19         0.00          2.82042
             Al 31 -- Al 35                 -0.19        -0.00          2.82042
             Al 29 -- Al 33                 -0.19        -0.00          2.82042
             Al 16 -- Al 18                 -0.19         0.00          2.82042
             Al 7  -- Al 12                 -0.19         0.00          2.82042
             Al 5  -- Al 10                 -0.19         0.00          2.82042
             Al 38 -- Al 40                 -0.19         0.00          2.82042
             Al 37 -- Al 43                 -0.21         0.00          2.82042
             Al 34 -- Al:1K 1               -0.04         0.00          2.82042
             Al 30 -- Al 32                 -0.19        -0.00          2.82042
             Al 29 -- Al 32                 -0.19        -0.00          2.82042
             Al 15 -- Al 17                 -0.19        -0.00          2.82042
             Al 14 -- Al 20                 -0.19         0.00          2.82042
             Al 8  -- Al 11                 -0.19         0.00          2.82042
             Al 6  -- Al 9                  -0.19         0.00          2.82042
             Al 5  -- Al 9                  -0.19         0.00          2.82042
             Al 36 -- Al 42                 -0.19        -0.00          2.82042
             Al 31 -- Al 34                 -0.19        -0.00          2.82042
             Al 13 -- Al 19                 -0.19         0.00          2.82042
             Al 7  -- Al 11                 -0.19         0.00          2.82042
             Al 39 -- Al 40                 -0.19        -0.00          2.82042
             Al 38 -- Al 41                 -0.19         0.00          2.82042
             Al 37 -- Al 42                 -0.19         0.00          2.82042
             Al 36 -- Al 43                 -0.21         0.00          2.82042
             Al 35 -- Al:1K 1               -0.04         0.00          2.82042
             Al 30 -- Al 33                 -0.19        -0.00          2.82042
             Al 14 -- Al 19                 -0.19         0.00          2.82042
             Al 13 -- Al 20                 -0.19         0.00          2.82042
             Al 8  -- Al 12                 -0.19         0.00          2.82042
             Al 6  -- Al 10                 -0.19         0.00          2.82042
             Al 16 -- Al 17                 -0.19         0.00          2.82042
             Al 15 -- Al 18                 -0.19        -0.00          2.82042
             Al 37 -- Al 41                 -0.19        -0.00          2.82042
             Al 36 -- Al 40                 -0.19         0.00          2.82042
             Al 14 -- Al 18                 -0.19         0.00          2.82042
             Al 13 -- Al 17                 -0.19         0.00          2.82042
             Al 39 -- Al 43                 -0.21         0.00          2.82042
             Al 38 -- Al 42                 -0.19         0.00          2.82042
             Al 32 -- Al:1K 1               -0.04         0.00          2.82042
             Al 31 -- Al 33                 -0.19        -0.00          2.82042
             Al 30 -- Al 34                 -0.19        -0.00          2.82042
             Al 29 -- Al 35                 -0.19        -0.00          2.82042
             Al 16 -- Al 20                 -0.19         0.00          2.82042
             Al 15 -- Al 19                 -0.19        -0.00          2.82042
             Al 8  -- Al 9                  -0.19         0.00          2.82042
             Al 7  -- Al 10                 -0.19         0.00          2.82042
             Al 6  -- Al 11                 -0.19         0.00          2.82042
             Al 5  -- Al 12                 -0.19         0.00          2.82042
             Al 22 -- Al 25                 -0.19        -0.00          2.82043
             Al 3  -- Al 47                 -0.19         0.00          2.82043
             Al 1  -- Al 45                 -0.19         0.00          2.82043
             Al 24 -- Al 27                 -0.19        -0.00          2.82043
             Al 2  -- Al 44                 -0.19        -0.00          2.82043
             Al 1  -- Al 44                 -0.19        -0.00          2.82043
             Al 23 -- Al 28                 -0.19        -0.00          2.82043
             Al 23 -- Al 27                 -0.19        -0.00          2.82043
             Al 21 -- Al 26                 -0.19        -0.00          2.82043
             Al 21 -- Al 25                 -0.19        -0.00          2.82043
             Al 4  -- Al 46                 -0.19        -0.00          2.82043
             Al 3  -- Al 46                 -0.19         0.00          2.82043
             Al 2  -- Al 45                 -0.19         0.00          2.82043
             Al 22 -- Al 26                 -0.19        -0.00          2.82043
             Al 24 -- Al 28                 -0.19        -0.00          2.82043
             Al 4  -- Al 47                 -0.19        -0.00          2.82043
             Al 22 -- Al 28                 -0.19        -0.00          2.82043
             Al 21 -- Al 27                 -0.19        -0.00          2.82043
             Al 4  -- Al 45                 -0.19         0.00          2.82043
             Al 3  -- Al 44                 -0.19         0.00          2.82043
             Al 2  -- Al 47                 -0.19        -0.00          2.82043
             Al 1  -- Al 46                 -0.19        -0.00          2.82043
             Al 24 -- Al 26                 -0.19        -0.00          2.82043
             Al 23 -- Al 25                 -0.19        -0.00          2.82043
              O 50 -- O 60                  -0.04         0.00          2.89649
              O 56 -- O 58                  -0.04        -0.00          2.89649
              O 54 -- O 56                  -0.04        -0.00          2.89649
              O 50 -- O 52                  -0.04        -0.00          2.89649
              O 18 -- O 20                  -0.04         0.00          2.89649
              O 55 -- O 57                  -0.04         0.00          2.89649
              O 49 -- O 51                  -0.04        -0.00          2.89649
              O 17 -- O 19                  -0.04        -0.00          2.89649
              O 14 -- O 24                  -0.04         0.00          2.89649
              O 53 -- O 55                  -0.04         0.00          2.89649
              O 49 -- O 59                  -0.04        -0.00          2.89649
              O 20 -- O 21                  -0.04        -0.00          2.89649
              O 19 -- O 22                  -0.04         0.00          2.89649
              O 14 -- O 15                  -0.04        -0.00          2.89649
              O 13 -- O 16                  -0.04         0.00          2.89649
              O 13 -- O 23                  -0.04         0.00          2.89649
              O 58 -- O 60                  -0.04        -0.00          2.89649
              O 57 -- O 59                  -0.04        -0.00          2.89649
              O 22 -- O 24                  -0.04        -0.00          2.89649
              O 22 -- O 23                  -0.04        -0.00          2.89649
              O 16 -- O 18                  -0.04         0.00          2.89649
              O 52 -- O 54                  -0.04         0.00          2.89649
              O 51 -- O 53                  -0.04         0.00          2.89649
              O 21 -- O 24                  -0.04         0.00          2.89649
              O 16 -- O 17                  -0.04         0.00          2.89649
              O 58 -- O 59                  -0.04         0.00          2.89649
              O 57 -- O 60                  -0.04        -0.00          2.89649
[...]
              O 39 -- O 47                  -0.04         0.00          2.89650
              O 64 -- O 67                  -0.04        -0.00          2.89650
              O 63 -- O 68                  -0.04         0.00          2.89650
              O 62 -- O 69                  -0.04         0.00          2.89650
              O 61 -- O 70                  -0.04         0.00          2.89650
              O 42 -- O 46                  -0.04        -0.00          2.89650
              O 40 -- O 48                  -0.04        -0.00          2.89650
              O 28 -- O 32                  -0.04        -0.00          2.89650
              O 27 -- O 31                  -0.04        -0.00          2.89650
              O 26 -- O 34                  -0.04         0.00          2.89650
              O 25 -- O 33                  -0.04        -0.00          2.89650
              O 6  -- O 9                   -0.04         0.00          2.89650
              O 5  -- O 10                  -0.04        -0.00          2.89650
              O 4  -- O 11                  -0.04        -0.00          2.89650
              O 3  -- O 12                  -0.04        -0.00          2.89650

Writing analysis data to Al2O3-ICSD_CollCode9770-supercell-1000eV.castep_bin

Writing model to Al2O3-ICSD_CollCode9770-supercell-1000eV.check

 A BibTeX formatted list of references used in this run has been written to
 Al2O3-ICSD_CollCode9770-supercell-1000eV.bib

Initialisation time =     11.21 s
Calculation time    =  11339.17 s
Finalisation time   =     58.62 s
Total time          =  11409.00 s

Overall parallel efficiency rating: Poor (44%)

Data was distributed by:-
G-vector (120-way); efficiency rating: Poor (49%)
k-point (2-way); efficiency rating: Very good (87%)