 Compiled for linux_x86_64_ifort17-TCM on Thu, 25 Apr 2019 11:55:28 +0100
 from code version
 ead7a5a1ccaa+ Castep191_branch Thu, 04 Apr 2019 21:51:34 +0100
 Compiler: ; Optimisation: fast
 MATHLIBS: Intel MKL(2019.0.2) (LAPACK version 3.7.0)
 FFT Lib : mkl
 Fundamental constants values: CODATA 2014

 Run started: Wed, 29 Sep 2021 21:48:17 +0100

 Atomic calculation performed for Li: 1s2 2s1

 Converged in 47 iterations to an ae energy of -202.784 eV

   | Pseudopotential Report - Date of generation 29-09-2021   |
   | Element: Li Ionic charge:  3.00 Level of theory: PBE     |
   | Atomic Solver: Koelling-Harmon                           |
   |               Reference Electronic Structure             |
   |         Orbital         Occupation         Energy        |
   |            1s              2.000           -1.906        |
   |            2s              1.000           -0.106        |
   |                 Pseudopotential Definition               |
   |        Beta     l      e      Rc     scheme   norm       |
   |          1      0   -1.906   1.001     qc      0         |
   |          2      0   -0.106   1.001     qc      0         |
   |          3      0    0.250   1.001     qc      0         |
   |         loc     1    0.000   1.001     pn      0         |
   | Augmentation charge Rinner = 0.699                       |
   | No partial core correction                               |
   | "1|1.0|14|16|18|10U:20(qc=7)"                            |
   |      Author: Chris J. Pickard, Cambridge University      |

 Atomic calculation performed for S: 1s2 2s2 2p6 3s2 3p4

[...]

   | Pseudopotential Report - Date of generation 29-09-2021   |
   | Element: S Ionic charge:  6.00 Level of theory: PBE      |
   | Atomic Solver: Koelling-Harmon                           |
   |               Reference Electronic Structure             |
   |         Orbital         Occupation         Energy        |
   |            3s              2.000           -0.634        |
   |            3p              4.000           -0.258        |
   |                 Pseudopotential Definition               |
   |        Beta     l      e      Rc     scheme   norm       |
   |          1      0   -0.634   1.796     qc      0         |
   |          2      0    0.250   1.796     qc      0         |
   |          3      1   -0.258   1.796     qc      0         |
   |          4      1    0.250   1.796     qc      0         |
   |          5      2    0.000   1.796     qc      0         |
   |          6      2    0.250   1.796     qc      0         |
   |         loc     3    0.000   1.796     pn      0         |
   | Augmentation charge Rinner = 1.255                       |
   | Partial core correction Rc = 1.255                       |
   | "3|1.8|5|6|7|30:31:32"                                   |
   |      Author: Chris J. Pickard, Cambridge University      |

 Atomic calculation performed for Fe: 1s2 2s2 2p6 3s2 3p6 3d6 4s2

[...]

   | Pseudopotential Report - Date of generation 29-09-2021   |
   | Element: Fe Ionic charge:  8.00 Level of theory: PBE     |
   | Atomic Solver: Koelling-Harmon                           |
   |               Reference Electronic Structure             |
   |         Orbital         Occupation         Energy        |
   |            3d              6.000           -0.276        |
   |            4s              2.000           -0.194        |
   |                 Pseudopotential Definition               |
   |        Beta     l      e      Rc     scheme   norm       |
   |          1      0   -0.194   2.399     qc      0         |
   |          2      0    0.250   2.399     qc      0         |
   |          3      1    0.000   2.399     qc      0         |
   |          4      1    0.250   2.399     qc      0         |
   |          5      2   -0.276   1.997     qc      0         |
   |          6      2    0.250   1.997     qc      0         |
   |         loc     3    0.000   2.399     pn      0         |
   | Augmentation charge Rinner = 1.000                       |
   | Partial core correction Rc = 1.000                       |
   | "3|2.4|2.4|1.0|8|9|10|40:41:32U2U2(qc=5.5)"              |
   |      Author: Chris J. Pickard, Cambridge University      |

 Atomic calculation performed for S:1K: 1s2 2s2 2p6 3s2 3p4

 Converged in 57 iterations to an ae energy of -10858.586 eV

   | Pseudopotential Report - Date of generation 29-09-2021   |
   | Element: S Ionic charge: 14.00 Level of theory: PBE      |
   | Atomic Solver: Koelling-Harmon                           |
   |               Reference Electronic Structure             |
   |         Orbital         Occupation         Energy        |
   |            2s              2.000           -7.780        |
   |            2p              6.000           -5.751        |
   |            3s              2.000           -0.634        |
   |            3p              4.000           -0.258        |
   |                 Pseudopotential Definition               |
   |        Beta     l      e      Rc     scheme   norm       |
   |          1      0   -7.780   1.298     qc      0         |
   |          2      0   -0.634   1.298     qc      0         |
   |          3      0    0.250   1.298     qc      0         |
   |          4      1   -5.751   1.298     qc      0         |
   |          5      1   -0.258   1.298     qc      0         |
   |          6      1    0.250   1.298     qc      0         |
   |         loc     2    0.000   1.298     pn      0         |
   | Augmentation charge Rinner = 0.907                       |
   | Partial core correction Rc = 0.907                       |
   | "2|1.3|20|22|24|20U:21U:30:31(qc=7)"                     |
   |      Author: Chris J. Pickard, Cambridge University      |

 Pseudo atomic calculation performed for Li 1s2 2s1

 Converged in 17 iterations to a total energy of -200.5139 eV

 Pseudo atomic calculation performed for S 3s2 3p4

[...]

 Pseudo atomic calculation performed for Fe 3d6 4s2

 Converged in 31 iterations to a total energy of -853.8363 eV

 Pseudo atomic calculation performed for S:1K 2s2 2p6 3s2 3p4

 Converged in 22 iterations to a total energy of -4045.9189 eV
 Calculation not parallelised.

 ************************************ Title ************************************

 ***************************** General Parameters ******************************

 output verbosity                               : normal  (1)
 write checkpoint data to                       : LiFeS-1Li-supercell-S1-xas-dryrun.check
 type of calculation                            : Electronic Spectroscopy
 stress calculation                             : off
 density difference calculation                 : off
 electron localisation func (ELF) calculation   : off
 Hirshfeld analysis                             : off
 unlimited duration calculation
 timing information                             : on
 write extra output files                       : on
 write final potential to formatted file        : off
 write final density to formatted file          : off
 write BibTeX reference list                    : on
 write OTFG pseudopotential files               : on
 write electrostatic potential file             : on
 write bands file                               : on
 checkpoint writing                             : both castep_bin and check files

 output         length unit                     : A
 output           mass unit                     : amu
 output           time unit                     : ps
 output         charge unit                     : e
 output           spin unit                     : hbar/2
 output         energy unit                     : eV
 output          force unit                     : eV/A
 output       velocity unit                     : A/ps
 output       pressure unit                     : GPa
 output     inv_length unit                     : 1/A
 output      frequency unit                     : cm-1
 output force constant unit                     : eV/A**2
 output         volume unit                     : A**3
 output   IR intensity unit                     : (D/A)**2/amu
 output         dipole unit                     : D
 output         efield unit                     : eV/A/e
 output        entropy unit                     : J/mol/K

 wavefunctions paging                           : none
 random number generator seed                   : randomised (214817321)
 data distribution                              : optimal for this architecture

 *********************** Exchange-Correlation Parameters ***********************

 using functional                               : Perdew Burke Ernzerhof
 relativistic treatment                         : Koelling-Harmon
 DFT+D: Semi-empirical dispersion correction    : off

 ************************* Pseudopotential Parameters **************************

 pseudopotential representation                 : reciprocal space
 <beta|phi> representation                      : reciprocal space
 spin-orbit coupling                            : off

 **************************** Basis Set Parameters *****************************

 plane wave basis set cut-off                   :  1000.0000   eV
 size of standard grid                          :     2.0000
 size of   fine   grid                          :     4.0000
 size of   fine   gmax                          :    64.8035   1/A
 finite basis set correction                    : none

 **************************** Electronic Parameters ****************************

 number of  electrons                           :  212.0
 net charge of system                           : +1.000
 treating system as non-spin-polarized
 number of bands                                :        306

 ********************* Electronic Minimization Parameters **********************

 Method: Treating system as metallic with density mixing treatment of electrons,
         and number of  SD  steps               :          1
         and number of  CG  steps               :          4

 total energy / atom convergence tol.           : 0.1000E-04   eV
 eigen-energy convergence tolerance             : 0.1000E-05   eV
 max force / atom convergence tol.              : ignored
 convergence tolerance window                   :          3   cycles
 max. number of SCF cycles                      :        150
 number of fixed-spin iterations                :         10
 smearing scheme                                : Gaussian
 smearing width                                 : 0.2000       eV
 Fermi energy convergence tolerance             : 0.2721E-13   eV
 periodic dipole correction                     : NONE

 ************************** Density Mixing Parameters **************************

 density-mixing scheme                          : Pulay
 max. length of mixing history                  :         20
 charge density mixing amplitude                : 0.4000
 cut-off energy for mixing                      :  1000.       eV

 *********************** Population Analysis Parameters ************************

 Population analysis with cutoff                :  3.000       A
 Population analysis output                     : summary and pdos components

 ********************* Electronic Spectroscopy Parameters **********************

 electronic spectroscopy with theory level      : DFT
 spectroscopy calculation                       : core loss (EELS, XANES, etc)
 max. number of iterations                      :         60
 max. steps per iteration                       :          5
 number of bands / k-point                      :       2106
 band convergence tolerance                     : 0.1000E-05   eV
 write orbitals file                            : off

                                      Unit Cell
        Real Lattice(A)                      Reciprocal Lattice(1/A)
     7.8310010     0.0000000     0.0000000        0.802347657   0.463235632   0.000000000
    -3.9155000     6.7818450     0.0000000       -0.000000000   0.926471382   0.000000000
     0.0000000     0.0000000    12.7169810        0.000000000   0.000000000   0.494078375

                       Lattice parameters(A)       Cell Angles
                    a =      7.831001          alpha =   90.000000
                    b =      7.831000          beta  =   90.000000
                    c =     12.716981          gamma =  120.000000

                       Current cell volume =           675.381502       A**3
                                   density =             1.575304   AMU/A**3
                                           =             2.615853     g/cm^3

                                     Cell Contents
                         Total number of ions in cell =   39
                      Total number of species in cell =    4
                        Max number of any one species =   15

            x  Element    Atom        Fractional coordinates of atoms  x
            x            Number           u          v          w      x
            x  Li           1         0.006645  -0.006647   0.012572   x
            x  Li           2         0.486708  -0.006647   0.012572   x
            x  Li           3         0.006645   0.513291   0.012572   x
            x  Li           4         0.500000   0.499999   0.001823   x
            x  Li           5         0.168938   0.334469   0.176638   x
            x  Li           6         0.665530   0.334469   0.176638   x
            x  Li           7         0.166666   0.833333   0.180836   x
            x  Li           8         0.665530   0.831061   0.176638   x
            x  Li           9        -0.005482   0.005480   0.504074   x
            x  Li          10         0.510962   0.005480   0.504074   x
            x  Li          11        -0.005482   0.489037   0.504074   x
            x  Li          12         0.178768   0.339383   0.675287   x
            x  Li          13         0.660616   0.339383   0.675287   x
            x  Li          14         0.166666   0.833333   0.676125   x
            x  Li          15         0.660616   0.821231   0.675287   x
            x  S            1         0.333212   0.166425   0.128766   x
            x  S            2         0.833333   0.166666   0.124581   x
            x  S            3         0.333212   0.666787   0.128766   x
            x  S            4         0.833574   0.666787   0.128766   x
            x  S            5         0.153904   0.326952   0.367323   x
            x  S            6         0.166666   0.833333   0.358223   x
            x  S            7         0.673047   0.846094   0.367323   x
            x  S            8         0.326999   0.153999   0.641813   x
            x  S            9         0.833333   0.166666   0.636008   x
            x  S           10         0.326999   0.673000   0.641813   x
            x  S           11         0.846000   0.673000   0.641813   x
            x  S           12         0.179158   0.339579   0.864384   x
            x  S           13         0.660420   0.339579   0.864384   x
            x  S           14         0.166666   0.833333   0.870041   x
            x  S           15         0.660420   0.820841   0.864384   x
            x  Fe           1         0.334253   0.168507   0.314830   x
            x  Fe           2         0.833333   0.166666   0.309390   x
            x  Fe           3         0.334253   0.665745   0.314830   x
            x  Fe           4         0.831492   0.665745   0.314830   x
            x  Fe           5         0.332129   0.164257   0.822275   x
            x  Fe           6         0.833333   0.166666   0.819091   x
            x  Fe           7         0.332129   0.667870   0.822275   x
            x  Fe           8         0.835741   0.667870   0.822275   x
            x  S:1K         1         0.673047   0.326952   0.367323   x

                         No user defined ionic velocities

                                   Details of Species

                               Mass of species in AMU
                                    Li    6.9410000
                                    S   32.0660000
                                    Fe   55.8450000
                                    S:1K   32.0660000

                          Electric Quadrupole Moment (Barn)
                                    Li   -0.0401000 Isotope  7
                                    S   -0.0678000 Isotope 33
                                    Fe    0.1600000 Isotope 57
                                    S:1K   -0.0678000 Isotope 33

                          Files used for pseudopotentials:
                                    Li 1|1.0|14|16|18|10U:20(qc=7)
                                    S 3|1.8|5|6|7|30:31:32
                                    Fe 3|2.4|2.4|1.0|8|9|10|40:41:32U2U2(qc=5.5)
                                    S:1K 2|1.3|20|22|24|20U:21U:30:31(qc=7)

                              k-Points For BZ Sampling
                       MP grid size for SCF calculation is  5  5  3
                            with an offset of   0.000  0.000  0.000
                       Number of kpoints used =            24

                               Symmetry and Constraints

                      Maximum deviation from symmetry = 0.173883E-14     ANG

                      Number of symmetry operations   =           2
                      Number of ionic constraints     =           3
                      Point group of crystal =     3: Cs, m, m
                      Space group of crystal =     8: Cm, C -2y

             Set iprint > 1 for details on symmetry rotations/translations

                         Centre of mass is constrained
             Set iprint > 1 for details of linear ionic constraints

                         Number of cell constraints= 0
                         Cell constraints are:  1 2 3 4 5 6

                         External pressure/stress (GPa)
                          0.00000   0.00000   0.00000
                                    0.00000   0.00000
                                              0.00000
                    k-Points For SCF Sampling:          24
             +  Number       Fractional coordinates        Weight  +
             +     1  -0.400000  -0.400000  -0.333333   0.0533333  +
             +     2  -0.400000  -0.200000  -0.333333   0.0533333  +
             +     3  -0.400000   0.000000   0.000000   0.0533333  +
             +     4  -0.400000   0.400000   0.000000   0.0266667  +
             +     5  -0.200000  -0.200000  -0.333333   0.0533333  +
             +     6  -0.200000  -0.200000   0.000000   0.0266667  +
             +     7  -0.200000   0.000000  -0.333333   0.0533333  +
             +     8  -0.200000   0.000000   0.000000   0.0533333  +
             +     9  -0.200000   0.000000   0.333333   0.0533333  +
             +    10  -0.200000   0.200000  -0.333333   0.0266667  +
             +    11   0.000000   0.000000  -0.333333   0.0266667  +
             +    12   0.000000   0.000000   0.000000   0.0133333  +
             +    13   0.200000  -0.200000  -0.333333   0.0266667  +
             +    14   0.200000  -0.200000   0.000000   0.0266667  +
             +    15   0.400000  -0.400000  -0.333333   0.0266667  +
             +    16   0.400000  -0.400000   0.333333   0.0266667  +
             +    17   0.400000  -0.200000  -0.333333   0.0533333  +
             +    18   0.400000  -0.200000   0.000000   0.0533333  +
             +    19   0.400000  -0.200000   0.333333   0.0533333  +
             +    20   0.400000   0.000000  -0.333333   0.0533333  +
             +    21   0.400000   0.000000   0.333333   0.0533333  +
             +    22   0.400000   0.200000  -0.333333   0.0533333  +
             +    23   0.400000   0.200000   0.000000   0.0533333  +
             +    24   0.400000   0.400000   0.000000   0.0266667  +

                    k-Points For Core Spectra:          24
             +  Number       Fractional coordinates        Weight  +
             +     1  -0.400000  -0.400000  -0.333333   0.0533333  +
             +     2  -0.400000  -0.200000  -0.333333   0.0533333  +
             +     3  -0.400000   0.000000   0.000000   0.0533333  +
             +     4  -0.400000   0.400000   0.000000   0.0266667  +
             +     5  -0.200000  -0.200000  -0.333333   0.0533333  +
             +     6  -0.200000  -0.200000   0.000000   0.0266667  +
             +     7  -0.200000   0.000000  -0.333333   0.0533333  +
             +     8  -0.200000   0.000000   0.000000   0.0533333  +
             +     9  -0.200000   0.000000   0.333333   0.0533333  +
             +    10  -0.200000   0.200000  -0.333333   0.0266667  +
             +    11   0.000000   0.000000  -0.333333   0.0266667  +
             +    12   0.000000   0.000000   0.000000   0.0133333  +
             +    13   0.200000  -0.200000  -0.333333   0.0266667  +
             +    14   0.200000  -0.200000   0.000000   0.0266667  +
             +    15   0.400000  -0.400000  -0.333333   0.0266667  +
             +    16   0.400000  -0.400000   0.333333   0.0266667  +
             +    17   0.400000  -0.200000  -0.333333   0.0533333  +
             +    18   0.400000  -0.200000   0.000000   0.0533333  +
             +    19   0.400000  -0.200000   0.333333   0.0533333  +
             +    20   0.400000   0.000000  -0.333333   0.0533333  +
             +    21   0.400000   0.000000   0.333333   0.0533333  +
             +    22   0.400000   0.200000  -0.333333   0.0533333  +
             +    23   0.400000   0.200000   0.000000   0.0533333  +
             +    24   0.400000   0.400000   0.000000   0.0266667  +

            Bond                    Length (A)
        Li 14 -- S 10                2.21805
        Li 14 -- S 8                 2.21805
        Li 14 -- S 11                2.21805
        Li 7  -- S 6                 2.25583
         S 12 -- Fe 7                2.29159
         S 13 -- Fe 8                2.29159
         S 12 -- Fe 5                2.29159
         S 15 -- Fe 8                2.29159
         S 15 -- Fe 7                2.29159
         S 13 -- Fe 5                2.29159
         Fe 2 -- S:1K 1              2.29550
         S 7  -- Fe 2                2.29550
         S 5  -- Fe 2                2.29550
         S 10 -- Fe 7                2.29598
         S 8  -- Fe 5                2.29598
         S 11 -- Fe 8                2.29598
        Li 12 -- S 10                2.30682
        Li 12 -- S 8                 2.30682
        Li 15 -- S 11                2.30682
        Li 13 -- S 11                2.30682
        Li 15 -- S 10                2.30682
        Li 13 -- S 8                 2.30682
         S 14 -- Fe 7                2.32504
         S 14 -- Fe 5                2.32504
         S 14 -- Fe 8                2.32504
         S 9  -- Fe 6                2.32825
        Li 5  -- S 1                 2.33455
        Li 8  -- S 4                 2.33455
        Li 6  -- S 4                 2.33455
        Li 5  -- S 3                 2.33455
        Li 6  -- S 1                 2.33455
        Li 8  -- S 3                 2.33455
         S 6  -- Fe 1                2.33912
         S 6  -- Fe 4                2.33912
         S 6  -- Fe 3                2.33912
         S 2  -- Fe 2                2.35021
        Li 7  -- S 3                 2.35403
        Li 7  -- S 1                 2.35403
        Li 7  -- S 4                 2.35403
         S 1  -- Fe 1                2.36622
         S 4  -- Fe 4                2.36622
         S 3  -- Fe 3                2.36622
        Li 6  -- S 2                 2.37034
        Li 8  -- S 2                 2.37034
        Li 5  -- S 2                 2.37034
         Fe 4 -- S:1K 1              2.39419
         S 5  -- Fe 3                2.39419
         S 7  -- Fe 4                2.39419
         Fe 1 -- S:1K 1              2.39419
         S 7  -- Fe 3                2.39419
         S 5  -- Fe 1                2.39419
        Li 13 -- S 9                 2.39534
        Li 15 -- S 9                 2.39535
        Li 12 -- S 9                 2.39535
        Li 15 -- S 15                2.40474
        Li 12 -- S 12                2.40474
        Li 13 -- S 13                2.40474
         S 13 -- Fe 6                2.41503
         S 15 -- Fe 6                2.41503
         S 12 -- Fe 6                2.41503
        Li 6  -- S:1K 1              2.42708
        Li 8  -- S 7                 2.42708
        Li 5  -- S 5                 2.42708
        Li 14 -- S 14                2.46603
        Li 2  -- S 3                 2.66351
        Li 1  -- S 4                 2.66351
        Li 3  -- S 3                 2.66351
        Li 1  -- S 1                 2.66351
        Li 2  -- S 1                 2.66351
        Li 3  -- S 4                 2.66351
        Li 3  -- S 2                 2.74863
        Li 2  -- S 2                 2.74863
        Li 1  -- S 2                 2.74864
        Li 11 -- S 9                 2.75587
        Li 10 -- S 9                 2.75587
        Li 9  -- S 9                 2.75587
        Li 4  -- S 1                 2.77918
        Li 4  -- S 4                 2.77918
        Li 4  -- S 3                 2.77918
        Li 11 -- S 5                 2.78883
        Li 10 -- S 7                 2.78883
        Li 10 -- S:1K 1              2.78883
        Li 9  -- S 5                 2.78883
        Li 11 -- S:1K 1              2.78883
        Li 9  -- S 7                 2.78883
        Li 4  -- S 13                2.79094
        Li 4  -- S 15                2.79094
        Li 4  -- S 12                2.79094
        Li 3  -- S 14                2.82778
        Li 1  -- S 14                2.82778
        Li 2  -- S 14                2.82778
        Li 6  -- Fe 2                2.83378
        Li 8  -- Fe 2                2.83378
        Li 5  -- Fe 2                2.83378
        Li 7  -- Fe 1                2.84088
        Li 7  -- Fe 4                2.84089
        Li 7  -- Fe 3                2.84089
        Li 5  -- Fe 3                2.85236
        Li 6  -- Fe 4                2.85236
        Li 8  -- Fe 3                2.85236
        Li 5  -- Fe 1                2.85236
        Li 8  -- Fe 4                2.85236
        Li 6  -- Fe 1                2.85236
        Li 9  -- S 11                2.85863
        Li 10 -- S 10                2.85863
        Li 9  -- S 8                 2.85863
        Li 11 -- S 10                2.85863
        Li 11 -- S 11                2.85863
        Li 10 -- S 8                 2.85863
        Li 12 -- Fe 5                2.90932
        Li 15 -- Fe 8                2.90932
        Li 12 -- Fe 7                2.90933
        Li 15 -- Fe 7                2.90933
        Li 13 -- Fe 8                2.90933
        Li 13 -- Fe 5                2.90933
        Li 14 -- Fe 7                2.91395
        Li 14 -- Fe 5                2.91395
        Li 14 -- Fe 8                2.91395
        Li 13 -- Fe 6                2.97195
        Li 15 -- Fe 6                2.97195
        Li 12 -- Fe 6                2.97195
        Li 9  -- S 6                 2.98199
        Li 11 -- S 6                 2.98199
        Li 10 -- S 6                 2.98199

             |       DRYRUN finished ...                       |
             |       No problems found with input files.       |

Initialisation time =     18.28 s
Calculation time    =      0.02 s
Finalisation time   =      0.08 s
Total time          =     18.39 s