 Compiled for linux_x86_64_ifort17 on Tue, 03 Mar 2020 15:46:00 +0000
 from code version
 e1fe0d666396+ Castep191_branch Thu, 24 Oct 2019 13:54:03 +0100
 Compiler: Intel Fortran 17.0.4.196; Optimisation: fast
 MATHLIBS: Intel MKL(11.3.4) (LAPACK version 3.6.0)
 FFT Lib : mkl
 Fundamental constants values: CODATA 2014

 Run started: Thu, 24 Jun 2021 03:20:53 +0100

 Atomic calculation performed for S:1K: 1s1 2s2 2p6 3s2 3p4

 Converged in 52 iterations to an ae energy of -8363.983 eV

   | Pseudopotential Report - Date of generation 24-06-2021   |
   | Element: S Ionic charge: 15.00 Level of theory: PBE      |
   | Atomic Solver: Koelling-Harmon                           |
   |               Reference Electronic Structure             |
   |         Orbital         Occupation         Energy        |
   |            2s              2.000           -9.390        |
   |            2p              6.000           -7.535        |
   |            3s              2.000           -1.144        |
   |            3p              4.000           -0.719        |
   |                 Pseudopotential Definition               |
   |        Beta     l      e      Rc     scheme   norm       |
   |          1      0   -9.390   1.298     qc      0         |
   |          2      0   -1.144   1.298     qc      0         |
   |          3      0    0.250   1.298     qc      0         |
   |          4      1   -7.535   1.298     qc      0         |
   |          5      1   -0.719   1.298     qc      0         |
   |          6      1    0.250   1.298     qc      0         |
   |         loc     2    0.000   1.298     pn      0         |
   | Augmentation charge Rinner = 0.907                       |
   | Partial core correction Rc = 0.907                       |
   | "2|1.3|20|22|24|20U:21U:30:31(qc=7){1s1}"                |
   |      Author: Chris J. Pickard, Cambridge University      |

 Pseudo atomic calculation performed for Li 1s2 2s1

 Converged in 17 iterations to a total energy of -200.5139 eV

 Pseudo atomic calculation performed for S 2s2 2p6 3s2 3p4

[...]

 Pseudo atomic calculation performed for Fe 3s2 3p6 3d6 4s2

[...]

 Pseudo atomic calculation performed for S:1K 2s2 2p6 3s2 3p4

 Converged in 16 iterations to a total energy of -4740.3764 eV
 Calculation parallelised over 320 processes.
 Data is distributed by G-vector(40-way) and k-point(8-way)

 ************************************ Title ************************************

 ***************************** General Parameters ******************************

 output verbosity                               : normal  (1)
 write checkpoint data to                       : LiFeS-1Li-supercell-S1-xas.check
 type of calculation                            : Electronic Spectroscopy
 stress calculation                             : off
 density difference calculation                 : off
 electron localisation func (ELF) calculation   : off
 Hirshfeld analysis                             : off
 unlimited duration calculation
 timing information                             : on
 write extra output files                       : on
 write final potential to formatted file        : off
 write final density to formatted file          : off
 write BibTeX reference list                    : on
 write OTFG pseudopotential files               : on
 write electrostatic potential file             : on
 write bands file                               : on
 checkpoint writing                             : both castep_bin and check files

 output         length unit                     : A
 output           mass unit                     : amu
 output           time unit                     : ps
 output         charge unit                     : e
 output           spin unit                     : hbar/2
 output         energy unit                     : eV
 output          force unit                     : eV/A
 output       velocity unit                     : A/ps
 output       pressure unit                     : GPa
 output     inv_length unit                     : 1/A
 output      frequency unit                     : cm-1
 output force constant unit                     : eV/A**2
 output         volume unit                     : A**3
 output   IR intensity unit                     : (D/A)**2/amu
 output         dipole unit                     : D
 output         efield unit                     : eV/A/e
 output        entropy unit                     : J/mol/K

 wavefunctions paging                           : none
 random number generator seed                   : randomised (32054181)
 data distribution                              : optimal for this architecture

 *********************** Exchange-Correlation Parameters ***********************

 using functional                               : Perdew Burke Ernzerhof
 relativistic treatment                         : Koelling-Harmon
 DFT+D: Semi-empirical dispersion correction    : off

 ************************* Pseudopotential Parameters **************************

 pseudopotential representation                 : reciprocal space
 <beta|phi> representation                      : reciprocal space
 spin-orbit coupling                            : off

 **************************** Basis Set Parameters *****************************

 plane wave basis set cut-off                   :  1000.0000   eV
 size of standard grid                          :     2.0000
 size of   fine   grid                          :     4.0000
 size of   fine   gmax                          :    64.8035   1/A
 finite basis set correction                    : none

 **************************** Electronic Parameters ****************************

 number of  electrons                           :  397.0
 net charge of system                           : +1.000
 net spin   of system                           : +1.000
 number of  up  spins                           :  199.0
 number of down spins                           :  198.0
 treating system as spin-polarized
 number of bands                                :        399

 ********************* Electronic Minimization Parameters **********************

 Method: Treating system as metallic with density mixing treatment of electrons,
         and number of  SD  steps               :          1
         and number of  CG  steps               :          4

 total energy / atom convergence tol.           : 0.1000E-04   eV
 eigen-energy convergence tolerance             : 0.9774E-06   eV
 max force / atom convergence tol.              : ignored
 convergence tolerance window                   :          3   cycles
 max. number of SCF cycles                      :        150
 number of fixed-spin iterations                :         10
 smearing scheme                                : Gaussian
 smearing width                                 : 0.2000       eV
 Fermi energy convergence tolerance             : 0.2721E-13   eV
 periodic dipole correction                     : NONE

 ************************** Density Mixing Parameters **************************

 density-mixing scheme                          : Pulay
 max. length of mixing history                  :         20
 charge density mixing amplitude                : 0.4000
   spin density mixing amplitude                :  2.000
 cut-off energy for mixing                      :  1000.       eV

 *********************** Population Analysis Parameters ************************

 Population analysis with cutoff                :  3.000       A
 Population analysis output                     : summary and pdos components

 ********************* Electronic Spectroscopy Parameters **********************

 electronic spectroscopy with theory level      : DFT
 spectroscopy calculation                       : core loss (EELS, XANES, etc)
 max. number of iterations                      :         60
 max. steps per iteration                       :          5
 number of bands / k-point                      :       2199
 band convergence tolerance                     : 0.1000E-05   eV
 write orbitals file                            : off

                                      Unit Cell
        Real Lattice(A)                      Reciprocal Lattice(1/A)
     7.8310010     0.0000000     0.0000000        0.802347657   0.463235632   0.000000000
    -3.9155000     6.7818450     0.0000000       -0.000000000   0.926471382   0.000000000
     0.0000000     0.0000000    12.7169810        0.000000000   0.000000000   0.494078375

                       Lattice parameters(A)       Cell Angles
                    a =      7.831001          alpha =   90.000000
                    b =      7.831000          beta  =   90.000000
                    c =     12.716981          gamma =  120.000000

                       Current cell volume =           675.381502       A**3
                                   density =             1.575304   AMU/A**3
                                           =             2.615853     g/cm^3

                                     Cell Contents
                         Total number of ions in cell =   39
                      Total number of species in cell =    4
                        Max number of any one species =   15

            x  Element    Atom        Fractional coordinates of atoms  x
            x            Number           u          v          w      x
            x  Li           1         0.006645  -0.006647   0.012572   x
            x  Li           2         0.486708  -0.006647   0.012572   x
            x  Li           3         0.006645   0.513291   0.012572   x
            x  Li           4         0.500000   0.499999   0.001823   x
            x  Li           5         0.168938   0.334469   0.176638   x
            x  Li           6         0.665530   0.334469   0.176638   x
            x  Li           7         0.166666   0.833333   0.180836   x
            x  Li           8         0.665530   0.831061   0.176638   x
            x  Li           9        -0.005482   0.005480   0.504074   x
            x  Li          10         0.510962   0.005480   0.504074   x
            x  Li          11        -0.005482   0.489037   0.504074   x
            x  Li          12         0.178768   0.339383   0.675287   x
            x  Li          13         0.660616   0.339383   0.675287   x
            x  Li          14         0.166666   0.833333   0.676125   x
            x  Li          15         0.660616   0.821231   0.675287   x
            x  S            1         0.333212   0.166425   0.128766   x
            x  S            2         0.833333   0.166666   0.124581   x
            x  S            3         0.333212   0.666787   0.128766   x
            x  S            4         0.833574   0.666787   0.128766   x
            x  S            5         0.153904   0.326952   0.367323   x
            x  S            6         0.166666   0.833333   0.358223   x
            x  S            7         0.673047   0.846094   0.367323   x
            x  S            8         0.326999   0.153999   0.641813   x
            x  S            9         0.833333   0.166666   0.636008   x
[...]
   S:1K     1      Px                   1.000     1.000     0.000
   S:1K     1      Py                   1.000     1.000    -0.000
   S:1K     1      Pz                   1.000     1.000     0.000
   S:1K     1      S                    0.929     0.925     0.003
                           Total:     197.688   198.941    -1.253

     Atomic Populations (Mulliken)
Species          Ion Spin      s      p      d      f     Total  Charge(e)   Spin(hbar/2)
  Li              1   up:     1.03   0.21   0.00   0.00   1.24     0.55        0.02
                  1   dn:     1.02   0.19   0.00   0.00   1.21
  Li              2   up:     1.03   0.21   0.00   0.00   1.24     0.51       -0.02
                  2   dn:     1.03   0.22   0.00   0.00   1.25
  Li              3   up:     1.03   0.21   0.00   0.00   1.24     0.51       -0.02
                  3   dn:     1.03   0.22   0.00   0.00   1.25
  Li              4   up:     1.02   0.21   0.00   0.00   1.22     0.54       -0.01
                  4   dn:     1.03   0.21   0.00   0.00   1.24
  Li              5   up:     1.01   0.29   0.00   0.00   1.29     0.42        0.00
                  5   dn:     1.01   0.28   0.00   0.00   1.29
  Li              6   up:     1.21   0.48   0.00   0.00   1.69    -0.36        0.02
                  6   dn:     1.21   0.46   0.00   0.00   1.67
  Li              7   up:     0.99   0.27   0.00   0.00   1.26     0.49        0.00
                  7   dn:     0.99   0.27   0.00   0.00   1.25
  Li              8   up:     1.01   0.29   0.00   0.00   1.29     0.42        0.00
                  8   dn:     1.01   0.28   0.00   0.00   1.29
  Li              9   up:     1.03   0.18   0.00   0.00   1.21     0.56       -0.02
                  9   dn:     1.04   0.19   0.00   0.00   1.23
  Li             10   up:     1.12   0.36   0.00   0.00   1.48     0.06        0.03
                 10   dn:     1.12   0.34   0.00   0.00   1.45
  Li             11   up:     1.12   0.36   0.00   0.00   1.48     0.06        0.03
                 11   dn:     1.12   0.34   0.00   0.00   1.45
  Li             12   up:     1.00   0.24   0.00   0.00   1.24     0.52        0.00
                 12   dn:     1.00   0.24   0.00   0.00   1.24
  Li             13   up:     0.97   0.21   0.00   0.00   1.18     0.64       -0.00
                 13   dn:     0.97   0.21   0.00   0.00   1.18
  Li             14   up:     1.00   0.30   0.00   0.00   1.30     0.40        0.00
                 14   dn:     1.00   0.29   0.00   0.00   1.30
  Li             15   up:     1.00   0.24   0.00   0.00   1.24     0.52        0.00
                 15   dn:     1.00   0.24   0.00   0.00   1.24
  S               1   up:     1.92   5.35   0.00   0.00   7.27    -0.55       -0.01
                  1   dn:     1.92   5.36   0.00   0.00   7.28
  S               2   up:     1.92   5.34   0.00   0.00   7.26    -0.53       -0.01
                  2   dn:     1.92   5.35   0.00   0.00   7.27
  S               3   up:     1.92   5.36   0.00   0.00   7.28    -0.56        0.00
                  3   dn:     1.92   5.36   0.00   0.00   7.28
  S               4   up:     1.92   5.35   0.00   0.00   7.27    -0.55       -0.01
                  4   dn:     1.92   5.36   0.00   0.00   7.28
  S               5   up:     1.92   5.24   0.00   0.00   7.16    -0.29        0.02
                  5   dn:     1.92   5.22   0.00   0.00   7.14
  S               6   up:     1.91   5.24   0.00   0.00   7.16    -0.30        0.02
                  6   dn:     1.92   5.22   0.00   0.00   7.14
  S               7   up:     1.92   5.24   0.00   0.00   7.16    -0.29        0.02
                  7   dn:     1.92   5.22   0.00   0.00   7.14
  S               8   up:     1.92   5.32   0.00   0.00   7.25    -0.49       -0.00
                  8   dn:     1.92   5.32   0.00   0.00   7.25
  S               9   up:     1.92   5.34   0.00   0.00   7.26    -0.53       -0.00
                  9   dn:     1.92   5.35   0.00   0.00   7.27
  S              10   up:     1.92   5.33   0.00   0.00   7.25    -0.50        0.00
                 10   dn:     1.92   5.32   0.00   0.00   7.25
  S              11   up:     1.92   5.32   0.00   0.00   7.25    -0.49       -0.00
                 11   dn:     1.92   5.32   0.00   0.00   7.25
  S              12   up:     1.91   5.22   0.00   0.00   7.14    -0.28       -0.00
                 12   dn:     1.91   5.23   0.00   0.00   7.14
  S              13   up:     1.91   5.22   0.00   0.00   7.13    -0.28       -0.01
                 13   dn:     1.92   5.23   0.00   0.00   7.14
  S              14   up:     1.91   5.23   0.00   0.00   7.14    -0.29       -0.00
                 14   dn:     1.91   5.23   0.00   0.00   7.14
  S              15   up:     1.91   5.22   0.00   0.00   7.14    -0.28       -0.00
                 15   dn:     1.91   5.23   0.00   0.00   7.14
  Fe              1   up:     1.36   3.66   3.32   0.00   8.33    -0.99       -0.32
                  1   dn:     1.37   3.66   3.63   0.00   8.66
  Fe              2   up:     1.41   3.73   3.33   0.00   8.47    -1.27       -0.33
                  2   dn:     1.42   3.74   3.64   0.00   8.80
  Fe              3   up:     1.23   3.28   3.28   0.00   7.80     0.08       -0.31
                  3   dn:     1.25   3.32   3.55   0.00   8.12
  Fe              4   up:     1.36   3.66   3.32   0.00   8.33    -0.99       -0.32
                  4   dn:     1.37   3.66   3.63   0.00   8.66
  Fe              5   up:     1.24   3.39   3.41   0.00   8.04    -0.09       -0.00
                  5   dn:     1.24   3.39   3.42   0.00   8.05
  Fe              6   up:     1.24   3.34   3.41   0.00   7.99     0.02       -0.00
                  6   dn:     1.24   3.34   3.42   0.00   7.99
  Fe              7   up:     1.24   3.39   3.41   0.00   8.04    -0.09       -0.01
                  7   dn:     1.24   3.39   3.42   0.00   8.05
  Fe              8   up:     1.24   3.39   3.41   0.00   8.04    -0.09       -0.00
                  8   dn:     1.24   3.39   3.42   0.00   8.05
  S:1K            1   up:     1.93   3.00   0.00   0.00   4.93     5.15        0.00
                  1   dn:     1.93   3.00   0.00   0.00   4.93

                 Bond                   Population        Spin       Length (A)
             Li 14 -- S 10                   0.27        -0.00          2.21805
             Li 14 -- S 8                    0.24         0.00          2.21805
             Li 14 -- S 11                   0.24         0.00          2.21805
             Li 7  -- S 6                    0.08        -0.00          2.25583
              S 12 -- Fe 7                   0.52         0.00          2.29159
              S 13 -- Fe 8                   0.52         0.00          2.29159
              S 12 -- Fe 5                   0.52         0.00          2.29159
              S 15 -- Fe 8                   0.52         0.00          2.29159
              S 15 -- Fe 7                   0.52         0.00          2.29159
              S 13 -- Fe 5                   0.52         0.00          2.29159
              Fe 2 -- S:1K 1                -0.21         0.00          2.29550
              S 7  -- Fe 2                   0.41        -0.01          2.29550
              S 5  -- Fe 2                   0.41        -0.01          2.29550
              S 10 -- Fe 7                   0.63         0.00          2.29598
              S 8  -- Fe 5                   0.62         0.00          2.29598
              S 11 -- Fe 8                   0.62         0.00          2.29598
             Li 12 -- S 10                   0.25        -0.00          2.30682
             Li 12 -- S 8                    0.24        -0.00          2.30682
             Li 15 -- S 11                   0.24        -0.00          2.30682
             Li 13 -- S 11                   0.26        -0.00          2.30682
             Li 15 -- S 10                   0.25        -0.00          2.30682
             Li 13 -- S 8                    0.26        -0.00          2.30682
              S 14 -- Fe 7                   0.49         0.00          2.32504
              S 14 -- Fe 5                   0.49         0.00          2.32504
              S 14 -- Fe 8                   0.49         0.00          2.32504
              S 9  -- Fe 6                   0.60         0.00          2.32825
             Li 5  -- S 1                    0.20         0.00          2.33455
             Li 8  -- S 4                    0.20         0.00          2.33455
             Li 6  -- S 4                    0.17        -0.00          2.33455
             Li 5  -- S 3                    0.22        -0.00          2.33455
             Li 6  -- S 1                    0.17        -0.00          2.33455
             Li 8  -- S 3                    0.22        -0.00          2.33455
              S 6  -- Fe 1                   0.42        -0.00          2.33912
              S 6  -- Fe 4                   0.42        -0.00          2.33912
              S 6  -- Fe 3                   0.49        -0.00          2.33912
              S 2  -- Fe 2                   0.52         0.01          2.35021
             Li 7  -- S 3                    0.21        -0.00          2.35403
             Li 7  -- S 1                    0.25        -0.00          2.35403
             Li 7  -- S 4                    0.25        -0.00          2.35403
              S 1  -- Fe 1                   0.47         0.00          2.36622
              S 4  -- Fe 4                   0.47         0.00          2.36622
              S 3  -- Fe 3                   0.54        -0.01          2.36622
             Li 6  -- S 2                    0.18        -0.00          2.37034
             Li 8  -- S 2                    0.21         0.00          2.37034
             Li 5  -- S 2                    0.21         0.00          2.37034
              Fe 4 -- S:1K 1                 0.13         0.00          2.39419
              S 5  -- Fe 3                   0.49        -0.01          2.39419
              S 7  -- Fe 4                   0.44        -0.01          2.39419
              Fe 1 -- S:1K 1                 0.13         0.00          2.39419
              S 7  -- Fe 3                   0.49        -0.01          2.39419
              S 5  -- Fe 1                   0.44        -0.01          2.39419
             Li 13 -- S 9                    0.25        -0.00          2.39534
             Li 15 -- S 9                    0.17         0.00          2.39535
             Li 12 -- S 9                    0.17         0.00          2.39535
             Li 15 -- S 15                   0.04         0.00          2.40474
             Li 12 -- S 12                   0.04         0.00          2.40474
             Li 13 -- S 13                   0.04        -0.00          2.40474
              S 13 -- Fe 6                   0.46         0.00          2.41503
              S 15 -- Fe 6                   0.46        -0.00          2.41503
              S 12 -- Fe 6                   0.46        -0.00          2.41503
             Li 6  -- S:1K 1                -0.48         0.01          2.42708
             Li 8  -- S 7                    0.06        -0.00          2.42708
             Li 5  -- S 5                    0.06        -0.00          2.42708
             Li 14 -- S 14                   0.01        -0.00          2.46603
             Li 2  -- S 3                    0.19         0.00          2.66351
             Li 1  -- S 4                    0.19         0.01          2.66351
             Li 3  -- S 3                    0.19         0.00          2.66351
             Li 1  -- S 1                    0.19         0.01          2.66351
             Li 2  -- S 1                    0.15        -0.01          2.66351
             Li 3  -- S 4                    0.15        -0.01          2.66351
             Li 3  -- S 2                    0.13        -0.01          2.74863
             Li 2  -- S 2                    0.13        -0.01          2.74863
             Li 1  -- S 2                    0.16         0.00          2.74864
             Li 11 -- S 9                    0.11         0.00          2.75587
             Li 10 -- S 9                    0.11         0.00          2.75587
             Li 9  -- S 9                    0.19        -0.00          2.75587
             Li 4  -- S 1                    0.11        -0.01          2.77918
             Li 4  -- S 4                    0.11        -0.01          2.77918
             Li 4  -- S 3                    0.15        -0.00          2.77918
             Li 11 -- S 5                    0.04         0.00          2.78883
             Li 10 -- S 7                    0.04         0.00          2.78883
             Li 10 -- S:1K 1                 0.25        -0.01          2.78883
             Li 9  -- S 5                    0.09        -0.00          2.78883
             Li 11 -- S:1K 1                 0.25        -0.01          2.78883
             Li 9  -- S 7                    0.09        -0.00          2.78883
             Li 4  -- S 13                   0.05         0.00          2.79094
             Li 4  -- S 15                   0.05         0.00          2.79094
             Li 4  -- S 12                   0.05         0.00          2.79094
             Li 3  -- S 14                   0.04         0.00          2.82778
             Li 1  -- S 14                   0.04        -0.00          2.82778
             Li 2  -- S 14                   0.04         0.00          2.82778
             Li 6  -- Fe 2                   0.64         0.01          2.83378
             Li 8  -- Fe 2                  -0.63        -0.01          2.83378
             Li 5  -- Fe 2                  -0.63        -0.01          2.83378
             Li 7  -- Fe 1                  -0.49        -0.00          2.84088
             Li 7  -- Fe 4                  -0.49        -0.00          2.84089
             Li 7  -- Fe 3                  -0.24         0.00          2.84089
             Li 5  -- Fe 3                  -0.17         0.00          2.85236
             Li 6  -- Fe 4                  -0.00        -0.03          2.85236
             Li 8  -- Fe 3                  -0.17         0.00          2.85236
             Li 5  -- Fe 1                  -0.43        -0.00          2.85236
             Li 8  -- Fe 4                  -0.43        -0.00          2.85236
             Li 6  -- Fe 1                  -0.00        -0.03          2.85236
             Li 9  -- S 11                   0.12         0.00          2.85863
             Li 10 -- S 10                   0.10        -0.00          2.85863
             Li 9  -- S 8                    0.12         0.00          2.85863
             Li 11 -- S 10                   0.10        -0.00          2.85863
             Li 11 -- S 11                   0.09        -0.00          2.85863
             Li 10 -- S 8                    0.09        -0.00          2.85863
             Li 12 -- Fe 5                  -0.11        -0.00          2.90932
             Li 15 -- Fe 8                  -0.11        -0.00          2.90932
             Li 12 -- Fe 7                  -0.11        -0.00          2.90933
             Li 15 -- Fe 7                  -0.11        -0.00          2.90933
             Li 13 -- Fe 8                  -0.11         0.00          2.90933
             Li 13 -- Fe 5                  -0.11         0.00          2.90933
             Li 14 -- Fe 7                  -0.11         0.00          2.91395
             Li 14 -- Fe 5                  -0.12         0.00          2.91395
             Li 14 -- Fe 8                  -0.12         0.00          2.91395
             Li 13 -- Fe 6                  -0.04         0.00          2.97195
             Li 15 -- Fe 6                  -0.03         0.00          2.97195
             Li 12 -- Fe 6                  -0.03         0.00          2.97195
             Li 9  -- S 6                    0.04        -0.00          2.98199
             Li 11 -- S 6                    0.02         0.00          2.98199
             Li 10 -- S 6                    0.02         0.00          2.98199

Writing analysis data to LiFeS-1Li-supercell-S1-xas.castep_bin

Writing model to LiFeS-1Li-supercell-S1-xas.check

 A BibTeX formatted list of references used in this run has been written to
 LiFeS-1Li-supercell-S1-xas.bib

Initialisation time =     35.23 s
Calculation time    =   2473.47 s
Finalisation time   =    105.79 s
Total time          =   2614.48 s

Overall parallel efficiency rating: Satisfactory (63%)

Data was distributed by:-
G-vector (40-way); efficiency rating: Satisfactory (69%)
k-point (8-way); efficiency rating: Excellent (97%)